Version identifier: 22.1.0.0 | 2022-03-09 | 1a383f8ce
CPXPARAM_Threads                                 1
CPXPARAM_MIP_Strategy_VariableSelect             3
CPXPARAM_TimeLimit                               600
Tried aggregator 1 time.
Reduced MIP has 1825 rows, 10500 columns, and 95322 nonzeros.
Reduced MIP has 9000 binaries, 1500 generals, 0 SOSs, and 0 indicators.
Presolve time = 0.05 sec. (39.25 ticks)
Found incumbent of value 1653.000000 after 0.13 sec. (96.51 ticks)
Tried aggregator 1 time.
Detecting symmetries...
Reduced MIP has 1825 rows, 10500 columns, and 95322 nonzeros.
Reduced MIP has 9000 binaries, 1500 generals, 0 SOSs, and 0 indicators.
Presolve time = 0.06 sec. (48.03 ticks)
Probing time = 0.01 sec. (8.53 ticks)
Clique table members: 305.
MIP emphasis: balance optimality and feasibility.
MIP search method: dynamic search.
Parallel mode: none, using 1 thread.
Root relaxation solution time = 1.02 sec. (1063.37 ticks)

        Nodes                                         Cuts/
   Node  Left     Objective  IInf  Best Integer    Best Bound    ItCnt     Gap

*     0+    0                         1653.0000        0.0000           100.00%
      0     0        0.0000  1671     1653.0000        0.0000     4261  100.00%
*     0+    0                            0.0000        0.0000             0.00%
      0     0        cutoff              0.0000        0.0000     4261    0.00%
Elapsed time = 10.50 sec. (12361.97 ticks, tree = 0.01 MB, solutions = 2)

Root node processing (before b&c):
  Real time             =   10.51 sec. (12362.35 ticks)
Sequential b&c:
  Real time             =    0.00 sec. (0.00 ticks)
                          ------------
Total (root+branch&cut) =   10.51 sec. (12362.35 ticks)
Primal number of violations:	0
Dual number of violations:	0
Status:	Optimal
Time:	10.52
Sequence:
	24
	21
	24
	11
	19
	7
	16
	11
	13
	21
	3
	20
	16
	6
	22
	14
	24
	17
	23
	21
	13
	1
	16
	21
	22
	20
	24
	21
	3
	20
	13
	21
	2
	16
	20
	24
	17
	24
	5
	13
	11
	16
	6
	16
	11
	13
	14
	9
	14
	12
	7
	22
	14
	24
	17
	13
	11
	16
	7
	16
	11
	19
	10
	2
	21
	16
	24
	11
	23
	21
	12
	11
	24
	10
	16
	15
	0
	10
	13
	17
	16
	6
	23
	15
	16
	13
	11
	16
	13
	16
	11
	13
	21
	13
	15
	24
	20
	19
	11
	19
	13
	11
	16
	13
	16
	11
	13
	16
	11
	19
	10
	13
	15
	23
	14
	13
	15
	24
	10
	8
	7
	16
	10
	2
	14
	24
	16
	1
	13
	21
	24
	15
	23
	10
	19
	11
	19
	20
	23
	15
	13
	16
	10
	2
	14
	24
	14
	9
	13
	14
	8
	6
	13
	14
	9
	5
	13
	1
	16
	6
	16
	11
	13
	14
	22
	21
	13
	24
	17
	13
	14
	24
	22
	14
	13
	12
	11
	13
	14
	24
	17
	23
	6
	12
	11
	19
	10
	16
	2
	10
	16
	6
	8
	6
	23
	14
	2
	14
	23
	6
	8
	21
	24
	6
	9
	21
	12
	6
	22
	5
	13
	14
	2
	10
	16
	21
	22
	10
	9
	21
	12
	10
	9
	6
	12
	21
	9
	10
	22
	21
	19
	10
	9
	24
	16
	17
	13
	10
	9
	4
	16
	10
	9
	6
	16
	14
	2
	10
	23
	21
	8
	20
	13
	11
	19
	14
	9
	20
	23
	15
	16
	7
	23
	11
	19
	14
	9
	20
	12
	7
	8
	10
	24
	21
	9
	21
	13
	14
	2
	10
	16
	15
	13
	10
	13
	17
	16
	6
	13
	2
	19
	21
	13
	18
	24
	14
	19
	2
	6
	13
